! SHBT-GHOST 12-layer RO4350B interposer
! Z0 = 50.12 ohm reference, swept to 40 GHz
# GHz S RI R 50.12
0.0	0.01000	0.0	1.00000	0.0	1.00000	0.0	0.01000	0.0
1.0	0.01025	0.0	0.97528	0.0	0.97528	0.0	0.01025	0.0
2.0	0.01050	0.0	0.95117	0.0	0.95117	0.0	0.01050	0.0
3.0	0.01075	0.0	0.92765	0.0	0.92765	0.0	0.01075	0.0
4.0	0.01100	0.0	0.90471	0.0	0.90471	0.0	0.01100	0.0
5.0	0.01125	0.0	0.88234	0.0	0.88234	0.0	0.01125	0.0
6.0	0.01150	0.0	0.86051	0.0	0.86051	0.0	0.01150	0.0
7.0	0.01175	0.0	0.83922	0.0	0.83922	0.0	0.01175	0.0
8.0	0.01200	0.0	0.81846	0.0	0.81846	0.0	0.01200	0.0
9.0	0.01225	0.0	0.79820	0.0	0.79820	0.0	0.01225	0.0
10.0	0.01250	0.0	0.77844	0.0	0.77844	0.0	0.01250	0.0
11.0	0.01275	0.0	0.75917	0.0	0.75917	0.0	0.01275	0.0
12.0	0.01300	0.0	0.74037	0.0	0.74037	0.0	0.01300	0.0
13.0	0.01325	0.0	0.72204	0.0	0.72204	0.0	0.01325	0.0
14.0	0.01350	0.0	0.70415	0.0	0.70415	0.0	0.01350	0.0
15.0	0.01375	0.0	0.68671	0.0	0.68671	0.0	0.01375	0.0
16.0	0.01400	0.0	0.66969	0.0	0.66969	0.0	0.01400	0.0
17.0	0.01425	0.0	0.65310	0.0	0.65310	0.0	0.01425	0.0
18.0	0.01450	0.0	0.63691	0.0	0.63691	0.0	0.01450	0.0
19.0	0.01475	0.0	0.62112	0.0	0.62112	0.0	0.01475	0.0
20.0	0.01500	0.0	0.60572	0.0	0.60572	0.0	0.01500	0.0
21.0	0.01525	0.0	0.59070	0.0	0.59070	0.0	0.01525	0.0
22.0	0.01550	0.0	0.57605	0.0	0.57605	0.0	0.01550	0.0
23.0	0.01575	0.0	0.56176	0.0	0.56176	0.0	0.01575	0.0
24.0	0.01600	0.0	0.54782	0.0	0.54782	0.0	0.01600	0.0
25.0	0.01625	0.0	0.53422	0.0	0.53422	0.0	0.01625	0.0
26.0	0.01650	0.0	0.52096	0.0	0.52096	0.0	0.01650	0.0
27.0	0.01675	0.0	0.50803	0.0	0.50803	0.0	0.01675	0.0
28.0	0.01700	0.0	0.49542	0.0	0.49542	0.0	0.01700	0.0
29.0	0.01725	0.0	0.48312	0.0	0.48312	0.0	0.01725	0.0
30.0	0.01750	0.0	0.47112	0.0	0.47112	0.0	0.01750	0.0
31.0	0.01775	0.0	0.45941	0.0	0.45941	0.0	0.01775	0.0
32.0	0.01800	0.0	0.44800	0.0	0.44800	0.0	0.01800	0.0
33.0	0.01825	0.0	0.43686	0.0	0.43686	0.0	0.01825	0.0
34.0	0.01850	0.0	0.42601	0.0	0.42601	0.0	0.01850	0.0
35.0	0.01875	0.0	0.41542	0.0	0.41542	0.0	0.01875	0.0
36.0	0.01900	0.0	0.40509	0.0	0.40509	0.0	0.01900	0.0
37.0	0.01925	0.0	0.39501	0.0	0.39501	0.0	0.01925	0.0
38.0	0.01950	0.0	0.38519	0.0	0.38519	0.0	0.01950	0.0
39.0	0.01975	0.0	0.37560	0.0	0.37560	0.0	0.01975	0.0
40.0	0.02000	0.0	0.36626	0.0	0.36626	0.0	0.02000	0.0
